
Gurobi 9.5.2 (win64) logging started Mon Mar 27 20:25:49 2023

Set parameter LogFile to value "2023-03-27_20hr-25min-09sec/Nodes10_Arcs25_LocNodes8/Formulation-2Instance-5.log"
Set parameter TimeLimit to value 600
Set parameter IntFeasTol to value 1e-09
Set parameter DualReductions to value 0
Set parameter NonConvex to value 2
Gurobi Optimizer version 9.5.2 build v9.5.2rc0 (win64)
Thread count: 4 physical cores, 8 logical processors, using up to 8 threads
Optimize a model with 54 rows, 96 columns and 222 nonzeros
Model fingerprint: 0xc3f82b17
Model has 35 quadratic objective terms
Model has 35 SOS constraints
Variable types: 88 continuous, 8 integer (8 binary)
Coefficient statistics:
  Matrix range     [5e-02, 2e+02]
  Objective range  [1e-01, 1e+03]
  QObjective range [1e-01, 7e+00]
  Bounds range     [1e+00, 1e+00]
  RHS range        [1e-01, 1e+03]
Presolve time: 0.00s
Presolved: 54 rows, 96 columns, 222 nonzeros
Presolved model has 35 SOS constraint(s)
Presolved model has 35 quadratic objective terms
Variable types: 88 continuous, 8 integer (8 binary)

Root relaxation: objective 1.123146e+05, 146 iterations, 0.00 seconds (0.00 work units)

    Nodes    |    Current Node    |     Objective Bounds      |     Work
 Expl Unexpl |  Obj  Depth IntInf | Incumbent    BestBd   Gap | It/Node Time

     0     0 112314.614    0    6          - 112314.614      -     -    0s
H    0     0                    99176.269515 112314.614  13.2%     -    0s
H    0     0                    111469.01644 112314.614  0.76%     -    0s
     0     0 112073.533    0    5 111469.016 112073.533  0.54%     -    0s
     0     0 112073.533    0    5 111469.016 112073.533  0.54%     -    0s
     0     0 112073.533    0    5 111469.016 112073.533  0.54%     -    0s
     0     0 111948.422    0    4 111469.016 111948.422  0.43%     -    0s
     0     0 111948.422    0   24 111469.016 111948.422  0.43%     -    0s
     0     0 111948.422    0   25 111469.016 111948.422  0.43%     -    0s
     0     0 111948.422    0   25 111469.016 111948.422  0.43%     -    0s
     0     0 111948.422    0   24 111469.016 111948.422  0.43%     -    0s
     0     0 111761.077    0   24 111469.016 111761.077  0.26%     -    0s
H    0     0                    111571.93407 111761.077  0.17%     -    0s

Cutting planes:
  Cover: 2
  Implied bound: 2
  Clique: 1
  Flow cover: 25

Explored 1 nodes (407 simplex iterations) in 0.11 seconds (0.04 work units)
Thread count was 8 (of 8 available processors)

Solution count 4: 111572 111469 99176.3 98827.3 

Optimal solution found (tolerance 1.00e-04)
Best objective 1.115719340745e+05, best bound 1.115719340745e+05, gap 0.0000%

User-callback calls 224, time in user-callback 0.00 sec
